62 4
13 15 14 14
0 0 0 0 0 3 2 3 4
9 8 0 0 0 2 7 29
7 0 10 0 0 3 5 6 12
7 10 0 0 0 2 27 49
9 0 0 9 0 3 8 23 28
7 8 0 0 0 3 9 11 13
10 0 0 8 0 1 31
6 0 6 0 0 3 15 16 18
3 6 0 0 0 3 10 22 36
9 0 10 0 0 1 17
7 9 0 0 0 1 14
6 0 0 10 0 2 33 50
9 0 9 0 0 2 19 59
8 0 0 0 2 2 20 37
5 0 0 0 9 1 35
2 2 0 0 0 2 21 24
6 1 0 0 0 1 47
4 4 0 0 0 2 26 48
9 2 0 0 0 1 27
4 0 0 0 6 2 30 60
4 7 0 0 0 3 25 34 58
3 0 0 3 0 1 61
2 0 0 7 0 1 32
4 3 0 0 0 1 42
2 3 0 0 0 1 35
4 1 0 0 0 1 39
2 0 0 0 10 2 31 33
1 0 0 1 0 1 46
8 0 0 3 0 1 44
3 0 0 2 0 3 32 38 43
7 9 0 0 0 1 45
7 0 0 0 6 3 40 41 44
10 0 0 0 5 2 57 58
10 0 0 1 0 3 39 47 56
7 6 0 0 0 1 45
9 0 10 0 0 1 44
10 0 4 0 0 1 55
10 0 0 0 7 1 54
6 0 0 0 2 1 42
9 0 0 6 0 1 52
4 0 0 0 6 1 58
1 1 0 0 0 1 53
1 0 2 0 0 1 51
4 3 0 0 0 1 53
2 0 0 0 10 1 60
2 5 0 0 0 1 50
6 0 6 0 0 2 50 53
10 0 0 8 0 1 59
7 8 0 0 0 1 52
8 0 0 2 0 1 54
9 0 10 0 0 1 55
5 0 0 1 0 1 55
4 0 3 0 0 1 54
3 0 0 0 10 1 59
4 9 0 0 0 1 57
8 2 0 0 0 2 57 60
3 0 0 4 0 1 61
2 0 5 0 0 1 61
8 0 10 0 0 1 62
7 0 0 5 0 1 62
1 0 0 5 0 1 62
0 0 0 0 0 0
